# Objective value = 13
cmax 13
x_1_1 1
x_1_2 0
x_2_1 1
x_2_2 0
x_3_1 1
t_1_1_1 0
t_1_1_2 2
t_1_1_3 4
t_1_2_1 0
t_1_2_2 0
t_2_1_1 1.9999999999999929e+00
t_2_1_2 5.9999999999999929e+00
t_2_1_3 11
t_2_2_1 0
t_2_2_2 0
t_3_1_1 0
t_3_1_2 5
t_3_1_3 6
a_1_1_1_0 1
a_1_1_1_1 0
a_1_1_2_2 1
a_1_1_2_3 0
a_1_1_3_4 1
a_1_1_3_5 0
a_1_2_1_0 0
a_1_2_1_1 0
a_1_2_2_2 0
a_1_2_2_3 0
a_2_1_1_0 1
a_2_1_1_1 0
a_2_1_2_2 1
a_2_1_2_3 0
a_2_1_3_4 0
a_2_1_3_5 1
a_2_2_1_0 0
a_2_2_2_2 0
a_3_1_1_0 0
a_3_1_1_1 1
a_3_1_2_2 0
a_3_1_2_3 1
a_3_1_3_4 1
a_3_1_3_5 0
B_1_1_1_2_1_1 1
B_1_1_1_2_1_2 0
B_1_1_1_2_1_3 0
B_1_1_1_2_2_1 0
B_1_1_1_2_2_2 0
B_1_1_1_3_1_1 1
B_1_1_1_3_1_2 0
B_1_1_1_3_1_3 0
B_1_1_2_2_1_1 0
B_1_1_2_2_1_2 1
B_1_1_2_2_1_3 0
B_1_1_2_2_2_1 0
B_1_1_2_2_2_2 0
B_1_1_2_3_1_1 0
B_1_1_2_3_1_2 1
B_1_1_2_3_1_3 0
B_1_1_3_2_1_1 0
B_1_1_3_2_1_2 0
B_1_1_3_2_1_3 0
B_1_1_3_2_2_1 0
B_1_1_3_2_2_2 0
B_1_1_3_3_1_1 0
B_1_1_3_3_1_2 0
B_1_1_3_3_1_3 1
B_1_2_1_2_1_1 0
B_1_2_1_2_1_2 0
B_1_2_1_2_1_3 0
B_1_2_1_2_2_1 0
B_1_2_1_2_2_2 0
B_1_2_1_3_1_1 0
B_1_2_1_3_1_2 0
B_1_2_1_3_1_3 0
B_1_2_2_2_1_1 0
B_1_2_2_2_1_2 0
B_1_2_2_2_1_3 0
B_1_2_2_2_2_1 0
B_1_2_2_2_2_2 0
B_1_2_2_3_1_1 0
B_1_2_2_3_1_2 0
B_1_2_2_3_1_3 0
B_2_1_1_1_1_1 0
B_2_1_1_1_1_2 0
B_2_1_1_1_1_3 0
B_2_1_1_1_2_1 0
B_2_1_1_1_2_2 0
B_2_1_1_3_1_1 1
B_2_1_1_3_1_2 0
B_2_1_1_3_1_3 0
B_2_1_2_1_1_1 0
B_2_1_2_1_1_2 0
B_2_1_2_1_1_3 0
B_2_1_2_1_2_1 0
B_2_1_2_1_2_2 0
B_2_1_2_3_1_1 0
B_2_1_2_3_1_2 0
B_2_1_2_3_1_3 0
B_2_1_3_1_1_1 0
B_2_1_3_1_1_2 0
B_2_1_3_1_1_3 0
B_2_1_3_1_2_1 0
B_2_1_3_1_2_2 0
B_2_1_3_3_1_1 0
B_2_1_3_3_1_2 0
B_2_1_3_3_1_3 1
B_2_2_1_1_1_1 0
B_2_2_1_1_1_2 0
B_2_2_1_1_1_3 0
B_2_2_1_1_2_1 0
B_2_2_1_1_2_2 0
B_2_2_1_3_1_1 0
B_2_2_1_3_1_2 0
B_2_2_1_3_1_3 0
B_2_2_2_1_1_1 0
B_2_2_2_1_1_2 0
B_2_2_2_1_1_3 0
B_2_2_2_1_2_1 0
B_2_2_2_1_2_2 0
B_2_2_2_3_1_1 0
B_2_2_2_3_1_2 0
B_2_2_2_3_1_3 0
B_3_1_1_1_1_1 0
B_3_1_1_1_1_2 0
B_3_1_1_1_1_3 0
B_3_1_1_1_2_1 0
B_3_1_1_1_2_2 0
B_3_1_1_2_1_1 0
B_3_1_1_2_1_2 0
B_3_1_1_2_1_3 0
B_3_1_1_2_2_1 0
B_3_1_1_2_2_2 0
B_3_1_2_1_1_1 0
B_3_1_2_1_1_2 0
B_3_1_2_1_1_3 0
B_3_1_2_1_2_1 0
B_3_1_2_1_2_2 0
B_3_1_2_2_1_1 0
B_3_1_2_2_1_2 0
B_3_1_2_2_1_3 0
B_3_1_2_2_2_1 0
B_3_1_2_2_2_2 0
B_3_1_3_1_1_1 0
B_3_1_3_1_1_2 0
B_3_1_3_1_1_3 0
B_3_1_3_1_2_1 0
B_3_1_3_1_2_2 0
B_3_1_3_2_1_1 0
B_3_1_3_2_1_2 0
B_3_1_3_2_1_3 0
B_3_1_3_2_2_1 0
B_3_1_3_2_2_2 0
